RT is False
Default write of storage_offers_DA.csv just to have a file (but constraint should be inactive)
Reading model...
...model read.
creating competitive generators file...
...competitive generators recorded.
Loading data...
.. day-ahead data read.
Compiling instance...
...instance created.
Creating Offer Mitigation (model will solve as dispatch if TRUE)...
NOTE: storage offers will not be mitigated
...storage offer mitigation file created
Converting model to MPEC...
...converted
NOTE: initial MIP solve with only storage competitive to get feasible solution
Solving...

Welcome to IBM(R) ILOG(R) CPLEX(R) Interactive Optimizer 12.9.0.0
  with Simplex, Mixed Integer & Barrier Optimizers
5725-A06 5725-A29 5724-Y48 5724-Y49 5724-Y54 5724-Y55 5655-Y21
Copyright IBM Corp. 1988, 2019.  All Rights Reserved.

Type 'help' for a list of available commands.
Type 'help' followed by a command name for more
information on commands.

CPLEX> Logfile 'cplex.log' closed.
Logfile 'C:\Users\Luke\Desktop\test919\logs\tmp9kwu2xuw.cplex.log' open.
CPLEX> New value for parallel optimization mode: -1
CPLEX> New value for mixed integer optimality gap tolerance: 0.01
CPLEX> New value for integrality tolerance: 1e-09
CPLEX> New value for feasibility tolerance: 0.01
CPLEX> New value for deterministic time limit in ticks: 75000
CPLEX> Problem 'C:\Users\Luke\Desktop\test919\logs\tmpewijhbsf.pyomo.lp' read.
Read time = 0.20 sec. (14.73 ticks)
CPLEX> Problem name         : C:\Users\Luke\Desktop\test919\logs\tmpewijhbsf.pyomo.lp
Objective sense      : Maximize
Variables            :   53805  [Nneg: 1,  Box: 22000,  Free: 4464,
                                 Binary: 27340]
Objective nonzeros   :    8944
Linear constraints   :  123205  [Less: 41346,  Greater: 59096,  Equal: 22763]
  Nonzeros           :  291765
  RHS nonzeros       :   67455

Variables            : Min LB: -5000.000        Max UB: 1000000.       
Objective nonzeros   : Min   : 0.1000000        Max   : 842.1000       
Linear constraints   :
  Nonzeros           : Min   : 0.1000000        Max   : 1000000.       
  RHS nonzeros       : Min   : 0.1000000        Max   : 1000000.       
CPLEX> CPXPARAM_Parallel                                -1
CPXPARAM_Simplex_Tolerances_Feasibility          0.01
CPXPARAM_DetTimeLimit                            75000
CPXPARAM_MIP_Tolerances_MIPGap                   0.01
CPXPARAM_MIP_Tolerances_Integrality              1.0000000000000001e-09
Tried aggregator 3 times.
MIP Presolve eliminated 88817 rows and 19092 columns.
MIP Presolve added 3364 rows and 0 columns.
MIP Presolve modified 24843 coefficients.
Aggregator did 13001 substitutions.
Reduced MIP has 24751 rows, 21131 columns, and 70669 nonzeros.
Reduced MIP has 8340 binaries, 0 generals, 0 SOSs, and 0 indicators.
Presolve time = 0.23 sec. (173.53 ticks)
Probing fixed 384 vars, tightened 2777 bounds.
Probing time = 1.34 sec. (880.42 ticks)
Tried aggregator 2 times.
MIP Presolve eliminated 866 rows and 769 columns.
MIP Presolve modified 2156 coefficients.
Aggregator did 44 substitutions.
Reduced MIP has 23841 rows, 20318 columns, and 68031 nonzeros.
Reduced MIP has 7956 binaries, 0 generals, 0 SOSs, and 0 indicators.
Presolve time = 0.09 sec. (71.36 ticks)
Probing time = 0.02 sec. (15.98 ticks)
Clique table members: 6525.
MIP emphasis: balance optimality and feasibility.
MIP search method: dynamic search.
Parallel mode: opportunistic, using up to 24 threads.
Root relaxation solution time = 0.39 sec. (469.09 ticks)

        Nodes                                         Cuts/
   Node  Left     Objective  IInf  Best Integer    Best Bound    ItCnt     Gap

      0     0     8206.5436   747                   8206.5436     3180         
      0     0     8206.5437     5                     Cuts: 3     3182         
      0     0     8206.5437     5                     Cuts: 3     3183         
      0     0     8206.5437     5                  MIRcuts: 2     3183         
      0    14    infeasible                           Cuts: 2     3256         
Elapsed time = 7.03 sec. (4721.21 ticks, tree = 0.02 MB, solutions = 0)
*    68    21      integral     0     7934.3165     8104.5805     3305    2.15%
*    75    20      integral     0     8051.8473     8104.5805     3302    0.65%

Implied bound cuts applied:  1
Flow cuts applied:  8
Mixed integer rounding cuts applied:  2
Gomory fractional cuts applied:  1

Root node processing (before b&c):
  Real time             =    6.67 sec. (4714.23 ticks)
Parallel b&c, 24 threads:
  Real time             =    0.73 sec. (276.07 ticks)
  Sync time (average)   =    0.17 sec.
  Wait time (average)   =    0.00 sec.
                          ------------
Total (root+branch&cut) =    7.41 sec. (4990.30 ticks)

Solution pool: 6 solutions saved.

MIP - Integer optimal, tolerance (0.01/1e-06):  Objective =  8.0518472693e+03
Current MIP best bound =  8.1016180190e+03 (gap = 49.7707, 0.62%)
Solution time =    7.41 sec.  Iterations = 4387  Nodes = 99 (5)
Deterministic time = 4990.45 ticks  (673.84 ticks/sec)

CPLEX> Incumbent solution written to file 'C:\Users\Luke\Desktop\test919\logs\tmp7rn39hi6.cplex.sol'.
CPLEX> NOTE: no warmstart specified for MIP iteration, default behavior is true
NOTE: resolving with all competitive generators using storage-only solution to warmstart
Solving...

Welcome to IBM(R) ILOG(R) CPLEX(R) Interactive Optimizer 12.9.0.0
  with Simplex, Mixed Integer & Barrier Optimizers
5725-A06 5725-A29 5724-Y48 5724-Y49 5724-Y54 5724-Y55 5655-Y21
Copyright IBM Corp. 1988, 2019.  All Rights Reserved.

Type 'help' for a list of available commands.
Type 'help' followed by a command name for more
information on commands.

CPLEX> Logfile 'cplex.log' closed.
Logfile 'C:\Users\Luke\Desktop\test919\logs\tmpiqbuz4dq.cplex.log' open.
CPLEX> New value for parallel optimization mode: -1
CPLEX> New value for mixed integer optimality gap tolerance: 0.01
CPLEX> New value for integrality tolerance: 1e-09
CPLEX> New value for feasibility tolerance: 0.01
CPLEX> New value for deterministic time limit in ticks: 75000
CPLEX> Problem 'C:\Users\Luke\Desktop\test919\logs\tmp64bpp12_.pyomo.lp' read.
Read time = 0.20 sec. (14.75 ticks)
CPLEX> MIP start file 'C:\Users\Luke\Desktop\test919\logs\tmp5owllyz_.cplex.mst' read.
CPLEX> Problem name         : C:\Users\Luke\Desktop\test919\logs\tmp64bpp12_.pyomo.lp
Objective sense      : Maximize
Variables            :   54525  [Nneg: 1,  Box: 22720,  Free: 4464,
                                 Binary: 27340]
Objective nonzeros   :    9664
Linear constraints   :  123205  [Less: 41346,  Greater: 59096,  Equal: 22763]
  Nonzeros           :  291765
  RHS nonzeros       :   67455

Variables            : Min LB: -5000.000        Max UB: 1000000.       
Objective nonzeros   : Min   : 0.1000000        Max   : 842.1000       
Linear constraints   :
  Nonzeros           : Min   : 0.1000000        Max   : 1000000.       
  RHS nonzeros       : Min   : 0.1000000        Max   : 1000000.       
CPLEX> CPXPARAM_Parallel                                -1
CPXPARAM_Simplex_Tolerances_Feasibility          0.01
CPXPARAM_DetTimeLimit                            75000
CPXPARAM_MIP_Tolerances_MIPGap                   0.01
CPXPARAM_MIP_Tolerances_Integrality              1.0000000000000001e-09
Warning:  No solution found from 1 MIP starts.
Retaining values of one MIP start for possible repair.
Tried aggregator 3 times.
MIP Presolve eliminated 88817 rows and 19812 columns.
MIP Presolve added 3364 rows and 0 columns.
MIP Presolve modified 24843 coefficients.
Aggregator did 13001 substitutions.
Reduced MIP has 24751 rows, 21131 columns, and 70669 nonzeros.
Reduced MIP has 8340 binaries, 0 generals, 0 SOSs, and 0 indicators.
Presolve time = 0.23 sec. (173.89 ticks)
Probing fixed 384 vars, tightened 2777 bounds.
Probing time = 1.34 sec. (880.42 ticks)
Tried aggregator 2 times.
MIP Presolve eliminated 866 rows and 769 columns.
MIP Presolve modified 2156 coefficients.
Aggregator did 44 substitutions.
Reduced MIP has 23841 rows, 20318 columns, and 68031 nonzeros.
Reduced MIP has 7956 binaries, 0 generals, 0 SOSs, and 0 indicators.
Presolve time = 0.09 sec. (71.36 ticks)
Probing time = 0.03 sec. (15.98 ticks)
Clique table members: 6525.
MIP emphasis: balance optimality and feasibility.
MIP search method: dynamic search.
Parallel mode: opportunistic, using up to 24 threads.
Root relaxation solution time = 0.38 sec. (469.09 ticks)

        Nodes                                         Cuts/
   Node  Left     Objective  IInf  Best Integer    Best Bound    ItCnt     Gap

      0     0     8206.5436   747                   8206.5436     3180         
      0     0     8206.5437     5                     Cuts: 3     3182         
      0     0     8206.5437     5                     Cuts: 3     3183         
      0     0     8206.5437     5                  MIRcuts: 2     3183         
Repair heuristic found nothing.
      0    19    infeasible                           Cuts: 2     3346         
Elapsed time = 7.25 sec. (4751.01 ticks, tree = 0.02 MB, solutions = 0)
*    11    30      integral     0     8096.9699     8115.2578     3419    0.23%

Implied bound cuts applied:  1
Flow cuts applied:  4
Mixed integer rounding cuts applied:  2
Gomory fractional cuts applied:  1

Root node processing (before b&c):
  Real time             =    6.83 sec. (4741.52 ticks)
Parallel b&c, 24 threads:
  Real time             =    0.80 sec. (295.18 ticks)
  Sync time (average)   =    0.21 sec.
  Wait time (average)   =    0.00 sec.
                          ------------
Total (root+branch&cut) =    7.63 sec. (5036.70 ticks)

Solution pool: 5 solutions saved.

MIP - Integer optimal, tolerance (0.01/1e-06):  Objective =  8.0969698799e+03
Current MIP best bound =  8.1016180190e+03 (gap = 4.64814, 0.06%)
Solution time =    7.66 sec.  Iterations = 3560  Nodes = 79 (3)
Deterministic time = 5036.86 ticks  (657.90 ticks/sec)

CPLEX> Incumbent solution written to file 'C:\Users\Luke\Desktop\test919\logs\tmp_9a8asu6.cplex.sol'.
CPLEX> Exporting results... 
